\* test *\
Minimize
OBJ: - G_0 - G_1 - G_12 - G_14 - G_15 - G_17 - G_20 - G_21 - G_22 - G_6
 + 1.08 I_0 + 0.97 I_1 + 2.65 I_12 + 1.94 I_13 + 3.17 I_14 + I_15 + 3.33 I_17
 + 1.81 I_18 + 1.28 I_19 + 1.8 I_2 + 0.74 I_3 + 0.71 I_4 + 1.36 I_5 + 1.25 I_6
 + 1.71 I_7 + 1.75 I_8 + 1.95 I_9 - 5.00000574277e-09 del_0
 + 0.00343919899999 del_1 + 3.5527136788e-15 del_10 - 1.7763568394e-15 del_11
 - 3.5527136788e-15 del_13 + 3.5527136788e-15 del_14
 - 1.99999803385e-08 del_15 + 1.30000010756e-08 del_16
 - 5.0000004137e-08 del_17 - 3.5527136788e-15 del_18 + 7.1054273576e-15 del_19
 - 3.5527136788e-15 del_20 + 3.00000024822e-09 del_21
 - 1.00000008274e-09 del_3 + 1.7763568394e-15 del_4 + 2.99999669551e-09 del_5
 + 1.99999838912e-09 del_7 - 1.00000008274e-09 del_8 + 9.99996530027e-10 del_9
Subject To
_C1: G_0 >= 0.624
_C10: - G_1 + 71.94244604 del_0 - 85.04 del_1 + 7.892659826 del_3
 + 5.208333333 del_5 <= 0
_C100: - 57.80346821 del_14 + 57.80346821 del_15 <= 5
_C101: 57.80346821 del_14 - 57.80346821 del_15 <= 5
_C102: - 57.80346821 del_14 + 57.80346821 del_15 <= 5
_C103: 57.80346821 del_14 - 57.80346821 del_15 <= 5
_C104: - 57.80346821 del_14 + 57.80346821 del_15 <= 5
_C105: 57.80346821 del_14 - 57.80346821 del_15 <= 5
_C106: - 57.80346821 del_14 + 57.80346821 del_15 <= 5
_C107: 57.80346821 del_14 - 57.80346821 del_15 <= 5
_C108: - 57.80346821 del_14 + 57.80346821 del_15 <= 5
_C109: 57.80346821 del_14 - 57.80346821 del_15 <= 5
_C11: I_2 >= 1
_C110: - 57.80346821 del_14 + 57.80346821 del_15 <= 5
_C111: 57.80346821 del_14 - 57.80346821 del_15 <= 5
_C112: - 57.80346821 del_14 + 57.80346821 del_15 <= 5
_C113: 57.80346821 del_14 - 57.80346821 del_15 <= 5
_C114: - 57.80346821 del_14 + 57.80346821 del_15 <= 5
_C115: 57.80346821 del_14 - 57.80346821 del_15 <= 5
_C116: - 57.80346821 del_14 + 57.80346821 del_15 <= 5
_C117: 57.80346821 del_14 - 57.80346821 del_15 <= 5
_C118: - 57.80346821 del_14 + 57.80346821 del_15 <= 5
_C119: 57.80346821 del_14 - 57.80346821 del_15 <= 5
_C12: - 4.734848485 del_0 + 25.05716096 del_2 - 11.91895113 del_23
 - 8.403361345 del_8 <= 1.8
_C120: - 57.80346821 del_14 + 57.80346821 del_15 <= 5
_C121: 57.80346821 del_14 - 57.80346821 del_15 <= 5
_C122: - 57.80346821 del_14 + 57.80346821 del_15 <= 5
_C123: 57.80346821 del_14 - 57.80346821 del_15 <= 5
_C124: - 57.80346821 del_14 + 57.80346821 del_15 <= 5
_C125: 57.80346821 del_14 - 57.80346821 del_15 <= 5
_C126: - 57.80346821 del_14 + 57.80346821 del_15 <= 5
_C127: 57.80346821 del_14 - 57.80346821 del_15 <= 5
_C128: - 57.80346821 del_14 + 57.80346821 del_15 <= 5
_C129: 57.80346821 del_14 - 57.80346821 del_15 <= 5
_C13: 4.734848485 del_0 - 25.05716096 del_2 + 11.91895113 del_23
 + 8.403361345 del_8 <= 0
_C130: - 57.80346821 del_14 + 57.80346821 del_15 <= 5
_C131: 57.80346821 del_14 - 57.80346821 del_15 <= 5
_C132: - 57.80346821 del_14 + 57.80346821 del_15 <= 5
_C133: 57.80346821 del_14 - 57.80346821 del_15 <= 5
_C134: - 57.80346821 del_14 + 57.80346821 del_15 <= 5
_C135: 57.80346821 del_14 - 57.80346821 del_15 <= 5
_C136: - 57.80346821 del_14 + 57.80346821 del_15 <= 5
_C137: 57.80346821 del_14 - 57.80346821 del_15 <= 5
_C138: - 57.80346821 del_14 + 57.80346821 del_15 <= 5
_C139: 57.80346821 del_14 - 57.80346821 del_15 <= 5
_C14: I_3 >= 1
_C140: - 57.80346821 del_14 + 57.80346821 del_15 <= 5
_C141: 57.80346821 del_14 - 57.80346821 del_15 <= 5
_C142: - 57.80346821 del_14 + 57.80346821 del_15 <= 5
_C143: 57.80346821 del_14 - 57.80346821 del_15 <= 5
_C144: - 57.80346821 del_14 + 57.80346821 del_15 <= 5
_C145: 57.80346821 del_14 - 57.80346821 del_15 <= 5
_C146: - 57.80346821 del_14 + 57.80346821 del_15 <= 5
_C147: 57.80346821 del_14 - 57.80346821 del_15 <= 5
_C148: - 57.80346821 del_14 + 57.80346821 del_15 <= 5
_C149: 57.80346821 del_14 - 57.80346821 del_15 <= 5
_C15: - 7.892659826 del_1 + 17.53586137 del_3 - 9.643201543 del_8 <= 0.74
_C150: - 57.80346821 del_14 + 57.80346821 del_15 <= 5
_C151: 57.80346821 del_14 - 57.80346821 del_15 <= 5
_C152: - 57.80346821 del_14 + 57.80346821 del_15 <= 5
_C153: 57.80346821 del_14 - 57.80346821 del_15 <= 5
_C154: - 57.80346821 del_14 + 57.80346821 del_15 <= 5
_C155: 57.80346821 del_14 - 57.80346821 del_15 <= 5
_C156: - 57.80346821 del_14 + 57.80346821 del_15 <= 5
_C157: 57.80346821 del_14 - 57.80346821 del_15 <= 5
_C158: - 57.80346821 del_14 + 57.80346821 del_15 <= 5
_C159: 57.80346821 del_14 - 57.80346821 del_15 <= 5
_C16: 7.892659826 del_1 - 17.53586137 del_3 + 9.643201543 del_8 <= 0
_C160: - 57.80346821 del_14 + 57.80346821 del_15 <= 5
_C161: 57.80346821 del_14 - 57.80346821 del_15 <= 5
_C162: - 57.80346821 del_14 + 57.80346821 del_15 <= 5
_C163: 57.80346821 del_14 - 57.80346821 del_15 <= 5
_C164: - 57.80346821 del_14 + 57.80346821 del_15 <= 5
_C165: 57.80346821 del_14 - 57.80346821 del_15 <= 5
_C166: - 57.80346821 del_14 + 57.80346821 del_15 <= 5
_C167: 57.80346821 del_14 - 57.80346821 del_15 <= 5
_C168: - 57.80346821 del_14 + 57.80346821 del_15 <= 5
_C17: I_4 >= 1
_C18: - 11.83431953 del_0 + 23.15934784 del_4 - 11.32502831 del_9 <= 0.71
_C19: 11.83431953 del_0 - 23.15934784 del_4 + 11.32502831 del_9 <= 0
_C2: G_0 <= 1.92
_C20: I_5 >= 1
_C21: - 5.208333333 del_1 + 21.73725895 del_5 - 16.52892562 del_9 <= 1.36
_C22: 5.208333333 del_1 - 21.73725895 del_5 + 16.52892562 del_9 <= 0
_C23: G_6 >= 0.75
_C24: G_6 <= 3
_C25: I_6 >= 1
_C26: G_6 + 16.28664495 del_6 - 16.28664495 del_7 <= 1.25
_C27: - G_6 - 16.28664495 del_6 + 16.28664495 del_7 <= 0
_C28: I_7 >= 1
_C29: - 16.28664495 del_6 + 28.40051533 del_7 - 6.056935191 del_8
 - 6.056935191 del_9 <= 1.71
_C3: I_0 >= 1
_C30: 16.28664495 del_6 - 28.40051533 del_7 + 6.056935191 del_8
 + 6.056935191 del_9 <= 0
_C31: I_8 >= 1
_C32: - 11.91895113 del_10 - 11.91895113 del_11 - 8.403361345 del_2
 - 9.643201543 del_3 - 6.056935191 del_7 + 47.94140034 del_8 <= 1.75
_C33: 11.91895113 del_10 + 11.91895113 del_11 + 8.403361345 del_2
 + 9.643201543 del_3 + 6.056935191 del_7 - 47.94140034 del_8 <= 0
_C34: I_9 >= 1
_C35: - 11.91895113 del_10 - 11.91895113 del_11 - 11.32502831 del_4
 - 16.52892562 del_5 - 6.056935191 del_7 + 57.74879138 del_9 <= 1.95
_C36: 11.91895113 del_10 + 11.91895113 del_11 + 11.32502831 del_4
 + 16.52892562 del_5 + 6.056935191 del_7 - 57.74879138 del_9 <= 0
_C37: I_10 >= 1
_C38: 68.7697506 del_10 - 23.92344498 del_13 - 11.91895113 del_8
 - 11.91895113 del_9 <= 0
_C39: - 68.7697506 del_10 + 23.92344498 del_13 + 11.91895113 del_8
 + 11.91895113 del_9 <= 0
_C4: G_0 + 88.51161406 del_0 - 71.94244604 del_1 - 4.734848485 del_2
 - 11.83431953 del_4 <= 1.08
_C40: I_11 >= 1
_C41: 55.19827249 del_11 - 10.35196687 del_22 - 11.91895113 del_8
 - 11.91895113 del_9 <= 0
_C42: - 55.19827249 del_11 + 10.35196687 del_22 + 11.91895113 del_8
 + 11.91895113 del_9 <= 0
_C43: G_12 >= 2.07
_C44: G_12 <= 5.91
_C45: I_12 >= 1
_C46: G_12 - 21.00840336 del_10 - 21.00840336 del_11 - 11.56069364 del_22
 <= 2.65
_C47: - G_12 + 21.00840336 del_10 + 21.00840336 del_11 + 11.56069364 del_22
 <= 0
_C48: I_13 >= 1
_C49: - 23.92344498 del_10 + 49.63038585 del_13 - 25.70694087 del_15 <= 1.94
_C5: - G_0 - 88.51161406 del_0 + 71.94244604 del_1 + 4.734848485 del_2
 + 11.83431953 del_4 <= 0
_C50: 23.92344498 del_10 - 49.63038585 del_13 + 25.70694087 del_15 <= 0
_C51: G_14 >= 0.663
_C52: G_14 <= 2.15
_C53: I_14 >= 1
_C54: G_14 + 97.47945422 del_14 - 57.80346821 del_15 - 20.40816327 del_20
 - 19.26782274 del_23 <= 3.17
_C55: - G_14 - 97.47945422 del_14 + 57.80346821 del_15 + 20.40816327 del_20
 + 19.26782274 del_23 <= 0
_C56: G_15 >= 0.543
_C57: G_15 <= 1.55
_C58: I_15 >= 1
_C59: G_15 - 25.70694087 del_13 - 57.80346821 del_14 + 165.410491 del_15
 - 38.61003861 del_16 - 43.29004329 del_18 <= 1
_C6: G_1 >= 0.624
_C60: - G_15 + 25.70694087 del_13 + 57.80346821 del_14 - 165.410491 del_15
 + 38.61003861 del_16 + 43.29004329 del_18 <= 0
_C61: I_16 >= 1
_C62: - 38.61003861 del_15 + 117.5511592 del_16 - 69.44444444 del_17
 - 9.496676163 del_21 <= 0
_C63: 38.61003861 del_15 - 117.5511592 del_16 + 69.44444444 del_17
 + 9.496676163 del_21 <= 0
_C64: G_17 >= 1
_C65: G_17 <= 4
_C66: I_17 >= 1
_C67: G_17 - 69.44444444 del_16 + 108.0544831 del_17 - 38.61003861 del_20
 <= 3.33
_C68: - G_17 + 69.44444444 del_16 - 108.0544831 del_17 + 38.61003861 del_20
 <= 0
_C69: I_18 >= 1
_C7: G_1 <= 1.92
_C70: - 43.29004329 del_15 + 68.54256854 del_18 - 25.25252525 del_19 <= 1.81
_C71: 43.29004329 del_15 - 68.54256854 del_18 + 25.25252525 del_19 <= 0
_C72: I_19 >= 1
_C73: - 25.25252525 del_18 + 71.54882155 del_19 - 46.2962963 del_22 <= 1.28
_C74: 25.25252525 del_18 - 71.54882155 del_19 + 46.2962963 del_22 <= 0
_C75: G_20 >= 1
_C76: G_20 <= 4
_C77: I_20 >= 1
_C78: G_20 - 20.40816327 del_14 - 38.61003861 del_17 + 73.76746442 del_20
 - 14.74926254 del_21 <= 0
_C79: - G_20 + 20.40816327 del_14 + 38.61003861 del_17 - 73.76746442 del_20
 + 14.74926254 del_21 <= 0
_C8: I_1 >= 1
_C80: G_21 >= 0.6
_C81: G_21 <= 3
_C82: I_21 >= 1
_C83: G_21 - 9.496676163 del_16 - 14.74926254 del_20 + 24.2459387 del_21 <= 0
_C84: - G_21 + 9.496676163 del_16 + 14.74926254 del_20 - 24.2459387 del_21
 <= 0
_C85: G_22 >= 2.486
_C86: G_22 <= 6.6
_C87: I_22 >= 1
_C88: G_22 - 10.35196687 del_11 - 46.2962963 del_19 + 68.20895681 del_22 <= 0
_C89: - G_22 + 10.35196687 del_11 + 46.2962963 del_19 - 68.20895681 del_22
 <= 0
_C9: G_1 - 71.94244604 del_0 + 85.04 del_1 - 7.892659826 del_3
 - 5.208333333 del_5 <= 0.97
_C90: I_23 >= 1
_C91: - 19.26782274 del_14 - 11.91895113 del_2 + 31.18677387 del_23 <= 0
_C92: 19.26782274 del_14 + 11.91895113 del_2 - 31.18677387 del_23 <= 0
_C93: 57.80346821 del_14 - 57.80346821 del_15 <= 5
_C94: - 57.80346821 del_14 + 57.80346821 del_15 <= 5
_C95: 57.80346821 del_14 - 57.80346821 del_15 <= 5
_C96: - 57.80346821 del_14 + 57.80346821 del_15 <= 5
_C97: 57.80346821 del_14 - 57.80346821 del_15 <= 5
_C98: - 57.80346821 del_14 + 57.80346821 del_15 <= 5
_C99: 57.80346821 del_14 - 57.80346821 del_15 <= 5
Bounds
G_0 free
G_1 free
G_12 free
G_14 free
G_15 free
G_17 free
G_20 free
G_21 free
G_22 free
G_6 free
I_0 = 1
I_1 = 1
I_10 = 1
I_11 = 1
I_12 = 1
I_13 = 1
I_14 = 1
I_15 = 1
I_16 = 1
I_17 = 1
I_18 = 1
I_19 = 1
I_2 = 1
I_20 = 1
I_21 = 1
I_22 = 1
I_23 = 1
I_3 = 1
I_4 = 1
I_5 = 1
I_6 = 1
I_7 = 1
I_8 = 1
I_9 = 1
del_0 free
del_1 free
del_10 free
del_11 free
del_13 free
del_14 free
del_15 free
del_16 free
del_17 free
del_18 free
del_19 free
del_2 free
del_20 free
del_21 free
del_22 free
del_23 free
del_3 free
del_4 free
del_5 free
del_6 free
del_7 free
del_8 free
del_9 free
End
